(set-logic ALL)
(declare-const x String)
(declare-const y String)
(assert (str.in_re x (re.* (str.to_re "aabb"))))
(assert (str.in_re x (re.+ (str.to_re "aaaabb"))))
(assert (str.in_re x (re.* (str.to_re "aabbhhAAhh''\\\\\\\\nn''cccc"))))
(assert (> (str.len x) 2))
(check-sat)
